100
32
4
22
30
30
9
11
30
15
7
8
26
10
10
17
3
2
3
2
2
1
1
2
1
2
5
1
3
3
17
3
17
22
1
2
4
1
2
1
2
6
1
2
4
2
2
1
19
6
16
2
3
1
3
5
2
1
2
20
1
17
1
1
1
18
2
1
1
1
4
2
1
3
3
3
2
2
1
2
2
1
2
1
19
21
2
4
1
4
4
2
1
3
2
1
2
2
2
20
3
1